c ---- [ banner ] ------------------------------------------------------------
c
c Kissat SAT Solver
c 
c Copyright (c) 2021-2023 Armin Biere University of Freiburg
c Copyright (c) 2019-2021 Armin Biere Johannes Kepler University Linz
c 
c Version 3.1.1 unknown
c gcc (Ubuntu 9.4.0-1ubuntu1~20.04.2) 9.4.0 -W -Wall -O3 -DNDEBUG
c Mon Feb 26 18:18:52 CET 2024 Linux OptiPlex-7080 5.15.0-88-generic x86_64
c
c ---- [ parsing ] -----------------------------------------------------------
c
c opened and reading DIMACS file:
c
c   /home/oliveras/SAT-comp-2023//44092fcc83a5cba81419e82cfd18602c-php-010-009.shuffled-as.sat05-1185.cnf
c
c parsed 'p cnf 90 415' header
c closing input after reading 3951 bytes (4 KB)
c finished parsing after 0.00 seconds
c
c ---- [ options ] -----------------------------------------------------------
c
c --seed=1                         (different from default '0')
c
c ---- [ solving ] -----------------------------------------------------------
c
c  seconds switched conflicts irredundant variables
c         MB reductions redundant  trail  remaining
c          level restarts   binary    glue
c
c *  0.00  2 0 0 0  0   0   0 405 10 0% 0 90 99%
c {  0.00  2 0 0 0  0   0   0 405 10 0% 0 90 99%
c v  0.02  2 12 0 0  0 691 691 405 10 95% 7 90 99%
c -  0.02  2 12 0 1 24 1000 594 405 10 95% 7 90 99%
c }  0.02  2 12 1 1 24 1000 594 405 10 95% 7 90 99%
c [  0.02  2 0 1 1 24 1000 594 405 10 0% 0 90 99%
c B  0.02  2 18 1 1 24 1002 596 405 10 96% 8 90 99%
c v  0.03  2 15 1 1 24 1383 951 405 10 95% 8 90 99%
c ]  0.07  2 16 2 1 24 1843 1388 405 10 92% 10 90 99%
c {  0.07  2 12 2 1 24 1843 1388 405 10 95% 7 90 99%
c -  0.07  2 12 2 2 27 2000 910 405 10 96% 7 90 99%
c v  0.08  2 11 2 2 41 2819 1729 405 10 96% 7 90 99%
c }  0.11  3 11 3 2 41 2844 1754 405 10 96% 7 90 99%
c [  0.11  3 16 3 2 41 2844 1754 405 10 92% 10 90 99%
c W  0.11  3 16 3 2 41 2844 1754 405 10 92% 10 90 99%
c -  0.11  3 22 3 3 41 3414 1218 405 10 94% 13 90 99%
c e  0.11  3 23 3 3 41 3455 1259 337 68 94% 13 80 88%
c ^  0.11  3 23 3 3 41 3455 1259 337 68 94% 13 80 88%
c ]  0.12  3 22 4 3 41 3620 1089 337 68 94% 13 80 88%
c {  0.12  3 11 4 3 41 3620 1089 337 68 96% 7 80 88%
c
c  seconds  switched conflicts   irredundant variables
c         MB reductions   redundant     trail  remaining
c          level restarts       binary     glue
c
c v  0.13  3 11 4 3 259 5050 2505 337 68 96% 7 80 88%
c -  0.16  3 11 4 4 259 5147 1508 337 68 96% 7 80 88%
c }  0.16  3 11 5 4 296 5972 2330 337 68 96% 7 80 88%
c [  0.16  3 22 5 4 296 5972 2330 337 68 94% 13 80 88%
c I  0.16  3 22 5 4 296 5972 2330 337 68 94% 13 80 88%
c ^  0.17  3 20 5 4 296 6884 3219 337 68 94% 12 80 88%
c -  0.18  3 20 5 5 297 7147 1691 337 68 94% 12 80 88%
c ]  0.18  3 19 6 5 297 8048 2576 337 68 94% 12 80 88%
c {  0.18  3 11 6 5 297 8048 2576 337 68 96% 7 80 88%
c v  0.19  3 11 6 5 298 8103 2631 337 68 96% 7 80 88%
c -  0.23  3 10 6 6 318 9384 1974 337 68 96% 7 80 88%
c -  0.25  3 10 6 7 470 11833 2623 337 68 96% 7 80 88%
c v  0.26  3 10 6 7 471 12030 2820 337 68 96% 7 80 88%
c }  0.28  3 10 7 7 476 12119 2909 337 68 96% 7 80 88%
c [  0.28  3 19 7 7 476 12119 2909 337 68 94% 12 80 88%
c B  0.28  3 19 7 7 476 12119 2909 337 68 94% 12 80 88%
c ^  0.31  3 19 7 7 478 14314 5041 337 68 93% 12 80 88%
c -  0.31  4 19 7 8 478 14478 2773 337 68 93% 12 80 88%
c ]  0.31  4 19 8 8 478 14574 2869 337 68 93% 12 80 88%
c {  0.31  4 10 8 8 478 14574 2869 337 68 96% 7 80 88%
c
c  seconds  switched  conflicts   irredundant variables
c         MB reductions    redundant     trail  remaining
c          level restarts        binary     glue
c
c v  0.35  4 10 8 8 884 16862 5131 337 68 96% 7 80 88%
c -  0.37  4 10 8 9 934 17307 2949 337 68 96% 7 80 88%
c -  0.40  4 10 8 10 1129 20307 3770 337 68 96% 7 80 88%
c }  0.40  4 10 9 10 1181 20734 4189 337 68 96% 7 80 88%
c [  0.40  4 19 9 10 1181 20734 4189 337 68 93% 12 80 88%
c W  0.41  4 19 9 10 1181 20734 4189 337 68 93% 12 80 88%
c v  0.45  4 19 9 10 1182 22633 6037 337 68 93% 12 80 88%
c ]  0.48  4 19 10 10 1183 23318 6686 337 68 92% 12 80 88%
c {  0.48  4 10 10 10 1183 23318 6686 337 68 96% 7 80 88%
c -  0.49  4 11 10 11 1201 23471 3523 337 68 96% 7 80 88%
c ^  0.51  4 10 10 11 1311 26281 6322 337 68 96% 7 80 88%
c -  0.52  4 10 10 12 1327 26787 3975 337 68 96% 7 80 88%
c u  0.54  4 10 10 12 1423 29377 6556 337 68 96% 7 80 88%
c v  0.56  4 10 10 12 1423 29377 6556 337 68 96% 7 80 88%
c -  0.60  4 10 10 13 1468 30251 5217 337 68 96% 7 80 88%
c }  0.61  4 11 11 13 1557 31945 6905 337 68 96% 7 80 88%
c [  0.61  4 19 11 13 1557 31945 6905 337 68 92% 12 80 88%
c O  0.61  4 19 11 13 1557 31945 6905 337 68 92% 12 80 88%
c -  0.63  4 19 11 14 1558 33858 5712 337 68 93% 12 80 88%
c u  0.67  4 18 11 14 1560 37118 8878 343 68 93% 12 80 88%
c
c  seconds   switched    conflicts   irredundant variables
c         MB   reductions     redundant     trail   remaining
c          level    restarts        binary      glue
c
c v  0.68  4 18 11 14 1560 37118 8310 911 68 93% 12 80 88%
c t  0.70  4 18 11 14 1560 37118 8310 338 68 93% 12 80 88%
c ]  0.70  4 18 12 14 1561 37321 8510 338 68 93% 12 80 88%
c {  0.70  4 11 12 14 1561 37321 8510 338 68 96% 7 80 88%
c -  0.70  4 11 12 15 1605 37600 5349 338 68 96% 7 80 88%
c -  0.73  4 11 12 16 1770 41472 6576 338 68 96% 7 80 88%
c ^  0.75  4 11 12 16 1847 43286 8381 338 68 96% 7 80 88%
c -  0.77  4 11 12 17 2131 45472 7790 338 68 96% 8 80 88%
c u  0.78  4 11 12 17 2143 45884 8200 338 68 96% 8 80 88%
c v  0.79  4 11 12 17 2143 45884 8200 338 68 96% 8 80 88%
c }  0.83  4 11 13 17 2340 48801 11103 338 68 96% 8 80 88%
c [  0.83  4 18 13 17 2340 48801 11103 338 68 93% 12 80 88%
c B  0.83  4 18 13 17 2340 48801 11103 338 68 93% 12 80 88%
c -  0.84  4 18 13 18 2340 49598 8884 338 68 94% 12 80 88%
c -  0.89  4 18 13 19 2343 53841 9300 339 68 94% 12 80 88%
c u  0.91  4 17 13 19 2345 55701 11095 345 68 94% 12 80 88%
c v  0.93  4 17 13 19 2345 55701 10601 839 68 94% 12 80 88%
c t  0.94  4 17 13 19 2345 55701 10601 339 68 94% 12 80 88%
c ]  0.95  4 17 14 19 2345 56004 10896 339 68 94% 12 80 88%
c {  0.95  4 11 14 19 2345 56004 10896 339 68 96% 8 80 88%
c
c  seconds   switched    conflicts   irredundant variables
c         MB   reductions     redundant     trail  remaining
c          level    restarts        binary     glue
c
c -  0.97  4 11 14 20 2410 58199 8968 339 68 96% 8 80 88%
c -  1.01  4 11 14 21 2619 62672 10322 339 68 96% 8 80 88%
c !  1.04  5 11 14 21 2786 65813 13448 339 68 96% 8 80 88%
c u  1.05  5 11 14 21 2833 66590 14217 339 68 96% 8 80 88%
c v  1.06  5 11 14 21 2833 66590 14217 339 68 96% 8 80 88%
c -  1.09  4 11 14 22 2862 67254 11740 339 68 96% 8 80 88%
c }  1.13  4 11 15 22 3467 70721 15150 339 68 96% 8 80 88%
c [  1.13  4 17 15 22 3467 70721 15150 339 68 94% 12 80 88%
c W  1.13  4 17 15 22 3467 70721 15150 339 68 94% 12 80 88%
c -  1.14  4 18 15 23 3468 71945 11319 339 68 94% 12 80 88%
c -  1.22  4 19 15 24 3471 76741 10035 339 68 94% 13 80 88%
c ]  1.23  5 19 16 24 3472 78471 11706 339 68 94% 12 80 88%
c {  1.23  5 11 16 24 3472 78471 11706 339 68 96% 8 80 88%
c u  1.24  5 11 16 24 3485 78570 11805 339 68 96% 8 80 88%
c v  1.25  5 11 16 24 3485 78570 11805 339 68 96% 8 80 88%
c -  1.30  4 11 16 25 3806 81639 10248 339 68 96% 8 80 88%
c -  1.35  4 11 16 26 4070 86640 11673 339 68 96% 8 80 88%
c u  1.40  4 11 16 26 4529 91654 16638 339 68 96% 8 80 88%
c v  1.41  5 11 16 26 4529 91654 16638 339 68 96% 8 80 88%
c -  1.43  5 11 16 27 4529 91739 12616 339 68 96% 8 80 88%
c
c  seconds   switched    conflicts    irredundant variables
c         MB   reductions      redundant     trail  remaining
c          level    restarts         binary     glue
c
c }  1.48  5 11 17 27 4651 96808 17664 339 68 96% 8 80 88%
c [  1.48  5 19 17 27 4651 96808 17664 339 68 94% 12 80 88%
c I  1.48  5 19 17 27 4651 96808 17664 339 68 94% 12 80 88%
c -  1.49  5 19 17 28 4651 96935 13430 339 68 94% 12 80 88%
c -  1.55  4 18 17 29 4655 102226 12778 340 68 94% 12 80 88%
c u  1.60  4 18 17 29 4657 105865 16267 358 68 93% 12 80 88%
c v  1.62  5 18 17 29 4657 105865 15417 1208 68 93% 12 80 88%
c t  1.63  5 18 17 29 4657 105865 15417 341 68 93% 12 80 88%
c -  1.66  4 18 17 30 4657 107614 10519 341 68 94% 12 80 88%
c ]  1.67  4 18 18 30 4657 108373 11269 341 68 94% 12 80 88%
c {  1.67  4 11 18 30 4657 108373 11269 341 68 96% 8 80 88%
c -  1.71  4 11 18 31 4676 113091 11478 341 68 96% 8 80 88%
c -  1.77  5 11 18 32 4717 118658 13561 341 68 96% 8 80 88%
c u  1.80  5 10 18 32 4733 121240 16134 341 68 96% 8 80 88%
c v  1.81  5 10 18 32 4733 121240 16037 438 68 96% 8 80 88%
c t  1.83  5 10 18 32 4733 121240 16037 341 68 96% 8 80 88%
c -  1.86  5 10 18 33 4764 124315 14878 341 68 96% 8 80 88%
c -  1.92  5 10 18 34 4785 130059 15891 341 68 96% 8 80 88%
c }  1.93  4 10 19 34 4789 130718 16542 341 68 96% 8 80 88%
c [  1.93  4 18 19 34 4789 130718 16542 341 68 94% 12 80 88%
c
c  seconds   switched    conflicts     irredundant variables
c         MB   reductions       redundant     trail   remaining
c          level    restarts          binary      glue
c
c B  1.93  4 18 19 34 4789 130718 16542 341 68 94% 12 80 88%
c -  2.01  6 19 19 35 4793 135890 14455 341 68 94% 13 80 88%
c u  2.04  6 19 19 35 4794 137779 16336 341 68 94% 13 80 88%
c v  2.05  6 19 19 35 4794 137779 16336 341 68 94% 13 80 88%
c -  2.13  5 20 19 36 4795 141807 11910 341 68 94% 14 80 88%
c ]  2.18  5 20 20 36 4798 146345 16405 341 68 94% 14 80 88%
c {  2.18  5 10 20 36 4798 146345 16405 341 68 96% 8 80 88%
c -  2.21  6 10 20 37 4840 147807 11616 341 68 96% 8 80 88%
c -  2.27  6 10 20 38 5093 153890 13612 341 68 96% 7 80 88%
c u  2.30  6 10 20 38 5213 155492 15208 341 68 96% 7 80 88%
c v  2.30  6 10 20 38 5213 155492 15208 341 68 96% 7 80 88%
c -  2.37  6 10 20 39 5486 160054 15498 341 68 96% 8 80 88%
c -  2.44  6 10 20 40 5943 166299 15766 341 68 96% 8 80 88%
c -  2.52  6 10 20 41 6383 172623 15927 341 68 96% 8 80 88%
c }  2.52  5 10 21 41 6399 173085 16389 341 68 96% 8 80 88%
c [  2.52  6 20 21 41 6399 173085 16389 341 68 94% 14 80 88%
c W  2.52  6 20 21 41 6399 173085 16389 341 68 94% 14 80 88%
c u  2.55  6 21 21 41 6400 174395 17683 341 68 94% 14 80 88%
c v  2.56  6 21 21 41 6400 174395 17683 341 68 94% 14 80 88%
c -  2.65  6 20 21 42 6403 179026 15348 342 68 94% 14 80 88%
c
c  seconds   switched    conflicts     irredundant variables
c         MB   reductions       redundant     trail   remaining
c          level    restarts          binary      glue
c
c -  2.72  6 20 21 43 6405 185507 14304 344 68 94% 14 80 88%
c -  2.81  6 20 21 44 6411 192066 13968 346 68 94% 13 80 88%
c ]  2.83  5 20 22 44 6411 193352 15217 346 68 94% 14 80 88%
c {  2.83  6 10 22 44 6411 193352 15217 346 68 96% 8 80 88%
c u  2.85  6 10 22 44 6426 194501 16339 373 68 96% 8 80 88%
c v  2.86  6 10 22 44 6426 194501 16028 684 68 96% 8 80 88%
c t  2.88  6 10 22 44 6426 194501 16028 346 68 96% 8 80 88%
c -  2.93  6 10 22 45 6500 198701 14677 346 68 96% 8 80 88%
c -  3.00  6 10 22 46 6731 205409 16577 346 68 96% 8 80 88%
c -  3.09  6 10 22 47 6932 212191 17465 346 68 96% 7 80 88%
c u  3.14  6 10 22 47 7034 215907 21154 346 68 96% 7 80 88%
c v  3.15  6 10 22 47 7034 215907 21151 349 68 96% 7 80 88%
c t  3.17  6 10 22 47 7034 215907 21151 346 68 96% 7 80 88%
c -  3.21  6 10 22 48 7095 219046 18124 346 68 96% 7 80 88%
c }  3.28  6 10 23 48 7258 224869 23911 346 68 96% 7 80 88%
c [  3.28  6 20 23 48 7258 224869 23911 346 68 94% 14 80 88%
c O  3.28  6 20 23 48 7258 224869 23911 346 68 94% 14 80 88%
c -  3.30  6 20 23 49 7259 225975 18333 346 68 94% 13 80 88%
c -  3.42  6 20 23 50 7263 232975 16483 347 68 93% 13 80 88%
c u  3.52  6 19 23 50 7265 238551 21846 354 68 93% 13 80 88%
c
c  seconds   switched    conflicts     irredundant variables
c         MB   reductions       redundant     trail   remaining
c          level    restarts          binary      glue
c
c v  3.52  6 19 23 50 7265 238551 21716 484 68 93% 13 80 88%
c t  3.55  6 19 23 50 7265 238551 21716 347 68 93% 13 80 88%
c -  3.58  6 19 23 51 7267 240046 14797 348 68 93% 13 80 88%
c i  3.58  5 19 23 51 7267 240212 14955 352 68 93% 13 79 87%
c ]  3.65  6 20 24 51 7270 245491 20145 352 68 93% 13 79 87%
c {  3.65  6 10 24 51 7270 245491 20145 352 68 96% 7 79 87%
c -  3.68  6 10 24 52 7354 247187 13277 332 68 96% 7 79 87%
c -  3.77  6 10 24 53 8075 254398 15344 332 68 96% 8 79 87%
c -  3.85  6 10 24 54 8368 261678 17793 332 68 96% 7 79 87%
c u  3.86  6 10 24 54 8400 262462 18573 332 68 96% 7 79 87%
c v  3.87  6 10 24 54 8400 262462 18573 332 68 96% 7 79 87%
c -  3.98  6 10 24 55 8716 269027 19199 332 68 96% 7 79 87%
c -  4.07  6 10 24 56 9053 276446 19550 332 68 96% 7 79 87%
c }  4.14  6 10 25 56 9230 282170 25248 332 68 96% 7 79 87%
c [  4.14  6 20 25 56 9230 282170 25248 332 68 93% 13 79 87%
c B  4.14  6 20 25 56 9230 282170 25248 332 68 93% 13 79 87%
c -  4.16  6 20 25 57 9231 283930 19437 332 68 93% 13 79 87%
c u  4.22  6 19 25 57 9233 287339 22740 378 68 93% 13 79 87%
c v  4.23  6 19 25 57 9233 287339 22237 881 68 93% 13 79 87%
c t  4.25  6 19 25 57 9233 287339 22237 333 68 93% 13 79 87%
c
c  seconds   switched    conflicts     irredundant variables
c         MB   reductions       redundant     trail   remaining
c          level    restarts          binary      glue
c
c -  4.31  6 19 25 58 9236 291481 17190 334 68 93% 13 79 87%
c -  4.43  6 19 25 59 9240 299096 15205 335 68 93% 13 79 87%
c i  4.55  6 19 25 59 9243 306340 22233 341 68 93% 13 78 86%
c -  4.56  5 19 25 60 9243 306779 11776 323 68 93% 13 78 86%
c ]  4.57  5 19 26 60 9244 307627 12583 323 68 93% 13 78 86%
c {  4.57  5 10 26 60 9244 307627 12583 323 68 96% 7 78 86%
c u  4.65  6 10 26 60 9418 313492 18411 323 68 96% 7 78 86%
c v  4.66  6 10 26 60 9418 313492 18411 323 68 96% 7 78 86%
c -  4.70  6 10 26 61 9461 314525 14810 323 68 96% 7 78 86%
c -  4.79  6 10 26 62 9803 322336 18266 323 68 96% 7 78 86%
c -  4.88  6 10 26 63 10043 330210 20114 323 68 96% 7 78 86%
c -  4.98  6 10 26 64 10374 338147 20639 323 68 96% 7 78 86%
c u  5.02  6 10 26 64 10428 340693 23173 323 68 96% 7 78 86%
c v  5.03  6 10 26 64 10428 340693 23173 323 68 96% 7 78 86%
c -  5.12  6 10 26 65 10689 346150 21035 323 68 96% 7 78 86%
c }  5.17  6 10 27 65 10797 349847 24709 323 68 96% 7 78 86%
c [  5.17  6 19 27 65 10797 349847 24709 323 68 93% 13 78 86%
c W  5.17  6 19 27 65 10797 349847 24709 323 68 93% 13 78 86%
c -  5.23  6 19 27 66 10800 354214 20369 324 68 93% 13 78 86%
c -  5.37  7 19 27 67 10804 362338 17676 324 68 93% 13 78 86%
c
c  seconds   switched     conflicts     irredundant variables
c         MB   reductions        redundant     trail   remaining
c          level    restarts           binary      glue
c
c u  5.51  7 19 27 67 10809 369170 24398 325 68 93% 13 78 86%
c v  5.52  7 19 27 67 10809 369170 24398 325 68 93% 13 78 86%
c t  5.55  7 19 27 67 10809 369170 24398 324 68 93% 13 78 86%
c -  5.59  7 19 27 68 10809 370523 15606 324 68 93% 13 78 86%
c i  5.64  6 19 27 68 10810 374258 19280 328 68 93% 13 77 85%
c ]  5.66  6 19 28 68 10811 375524 20513 328 68 93% 13 77 85%
c {  5.66  6 10 28 68 10811 375524 20513 328 68 96% 7 77 85%
c -  5.70  6 10 28 69 11058 378772 14606 314 68 96% 7 77 85%
c -  5.80  6 10 28 70 11354 387078 18140 314 68 96% 7 77 85%
c -  5.90  6 10 28 71 11612 395444 21164 314 68 96% 7 77 85%
c u  5.96  6 10 28 71 11703 398942 24647 314 68 96% 7 77 85%
c v  5.97  6 10 28 71 11703 398942 24647 314 68 96% 7 77 85%
c -  6.06  7 10 28 72 11842 403870 22419 314 68 96% 7 77 85%
c -  6.17  6 10 28 73 12094 412355 23034 314 68 96% 7 77 85%
c -  6.30  7 10 28 74 12446 420900 23284 315 68 96% 7 77 85%
c }  6.33  6 10 29 74 12580 423662 26039 315 68 96% 7 77 85%
c [  6.33  6 19 29 74 12580 423662 26039 315 68 93% 13 77 85%
c I  6.33  6 19 29 74 12580 423662 26039 315 68 93% 13 77 85%
c -  6.43  7 19 29 75 12584 429504 21630 317 68 93% 13 77 85%
c u  6.44  6 19 29 75 12584 429749 21867 325 68 93% 13 77 85%
c
c  seconds   switched     conflicts     irredundant variables
c         MB   reductions        redundant     trail   remaining
c          level    restarts           binary      glue
c
c v  6.45  6 19 29 75 12584 429749 21859 333 68 93% 13 77 85%
c t  6.48  6 19 29 75 12584 429749 21859 317 68 93% 13 77 85%
c -  6.63  7 19 29 76 12589 438166 18916 317 68 93% 13 77 85%
c i  6.69  6 19 29 76 12591 441694 22392 323 68 93% 13 76 84%
c -  6.77  6 19 29 77 12593 446885 14021 307 68 93% 13 76 84%
c -  6.91  6 19 29 78 12594 455660 15053 307 68 93% 13 76 84%
c ]  6.93  6 19 30 78 12595 457036 16415 307 68 93% 13 76 84%
c {  6.93  6 10 30 78 12595 457036 16415 307 68 96% 7 76 84%
c u  7.00  6 10 30 78 12749 461932 21252 340 68 96% 7 76 84%
c v  7.02  6 10 30 78 12749 461932 20458 1134 68 96% 7 76 84%
c t  7.05  6 10 30 78 12749 461932 20458 308 68 96% 7 76 84%
c -  7.09  6 10 30 79 12930 464491 17447 310 68 96% 7 76 84%
c -  7.21  6 10 30 80 13145 473379 21258 312 68 96% 7 76 84%
c -  7.33  6 10 30 81 13481 482323 23675 313 68 95% 7 76 84%
c -  7.46  7 10 30 82 13892 491323 24168 315 68 95% 7 76 84%
c u  7.53  7 10 30 82 14094 495157 27959 331 68 95% 7 76 84%
c v  7.54  7 10 30 82 14094 495157 27952 338 68 95% 7 76 84%
c w  7.54  7 10 30 82 14094 495157 27952 338 68 95% 7 76 84%
c t  7.57  7 10 30 82 14094 495157 27952 319 68 95% 7 76 84%
c -  7.65  7 10 30 83 14310 500378 24791 320 68 95% 7 76 84%
c
c  seconds   switched     conflicts     irredundant variables
c         MB   reductions        redundant     trail  remaining
c          level    restarts           binary     glue
c
c -  7.78  7 10 30 84 14498 509491 25649 322 68 95% 7 76 84%
c }  7.81  7 10 31 84 14563 511470 27614 323 68 95% 7 76 84%
c [  7.81  7 19 31 84 14563 511470 27614 323 68 93% 13 76 84%
c B  7.81  7 19 31 84 14563 511470 27614 323 68 93% 13 76 84%
c i  7.84  7 19 31 84 14564 513424 29539 327 68 93% 12 75 82%
c -  7.92  7 19 31 85 14568 518656 22501 313 68 94% 12 75 82%
c i  8.09  7 18 31 85 14572 527075 30766 318 68 93% 12 74 81%
c -  8.11  7 18 31 86 14572 527877 16945 305 68 93% 12 74 81%
c u  8.15  6 18 31 86 14574 530009 19050 315 68 93% 12 74 81%
c v  8.16  6 18 31 86 14574 530009 19037 328 68 93% 12 74 81%
c t  8.19  6 18 31 86 14574 530009 19037 303 68 93% 12 74 81%
c i  8.21  6 18 31 86 14575 531024 20037 306 68 93% 12 73 80%
c -  8.32  7 19 31 87 14577 537151 15262 291 68 94% 13 73 80%
c -  8.48  7 19 31 88 14579 546478 15986 292 68 94% 13 73 80%
c ]  8.54  6 19 32 88 14582 550292 19750 293 68 94% 13 73 80%
c {  8.54  6 10 32 88 14582 550292 19750 293 68 95% 7 73 80%
c -  8.63  7 10 32 89 14787 555858 18896 296 68 95% 7 73 80%
c -  8.78  6 10 32 90 15024 565291 23328 303 68 95% 7 73 80%
c u  8.80  7 10 32 90 15040 565687 23518 495 66 95% 7 73 80%
c v  8.81  7 10 32 90 15040 565687 23223 790 66 95% 7 73 80%
c
c  seconds   switched     conflicts     irredundant variables
c         MB   reductions        redundant     trail  remaining
c          level    restarts           binary     glue
c
c t  8.85  7 10 32 90 15040 565687 23223 304 66 95% 7 73 80%
c -  8.99  7 10 32 91 15398 574777 25516 310 66 95% 7 73 80%
c -  9.14  7 10 32 92 15821 584316 26133 318 66 95% 7 73 80%
c -  9.31  7 10 32 93 16118 593910 26838 327 66 95% 7 73 80%
c u  9.47  7 10 32 93 16470 602644 35226 611 66 95% 7 73 80%
c v  9.49  7 10 32 93 16470 602644 34934 903 66 95% 7 73 80%
c t  9.52  7 10 32 93 16470 602644 34934 338 66 95% 7 73 80%
c -  9.54  7 10 32 94 16484 603554 27184 339 66 95% 7 73 80%
c }  9.67  7 10 33 94 16705 611398 34978 349 66 95% 7 73 80%
c [  9.67  7 19 33 94 16705 611398 34978 349 66 94% 13 73 80%
c W  9.67  7 19 33 94 16705 611398 34978 349 66 94% 13 73 80%
c -  9.71  7 19 33 95 16706 613250 27405 349 66 94% 13 73 80%
c i  9.74  7 19 33 95 16707 614851 28980 355 66 94% 13 72 79%
c i  9.86  7 19 33 95 16711 621368 35408 360 66 94% 12 71 78%
c -  9.90  7 19 33 96 16711 622997 20300 344 64 94% 12 71 78%
c - 10.12  7 19 33 97 16718 632794 17585 344 64 93% 13 71 78%
c u 10.29  7 19 33 97 16719 642037 26719 362 64 93% 12 71 78%
c v 10.31  7 19 33 97 16719 642037 26712 369 64 93% 12 71 78%
c w 10.31  7 19 33 97 16719 642037 26715 369 61 93% 12 71 78%
c t 10.35  7 19 33 97 16719 642037 26715 335 61 93% 12 71 78%
c
c  seconds   switched     conflicts     irredundant variables
c         MB   reductions        redundant     trail   remaining
c          level    restarts           binary      glue
c
c - 10.36  7 19 33 98 16719 642644 18362 336 61 93% 12 71 78%
c i 10.37  7 19 33 98 16719 643244 18951 340 61 93% 12 62 68%
c i 10.39  7 19 33 98 16719 644112 19793 346 61 93% 12 51 56%
c i 10.39  7 19 33 98 16719 644292 19960 350 61 93% 12 40 44%
c i 10.39  7 19 33 98 16719 644329 19987 353 61 93% 12 26 29%
c i 10.39  7 19 33 98 16719 644330 19987 353 61 93% 12 20 22%
c ] 10.39  7 19 33 98 16719 644334 19986 354 61 93% 12  0 0%
c 0 10.39  7 10 33 98 16719 644334 19986 354 61 95% 7  0 0%
c
c ---- [ result ] ------------------------------------------------------------
c
s UNSATISFIABLE
c
c ---- [ profiling ] ---------------------------------------------------------
c
c           8.90   85.66 %  search
c           4.90   47.17 %  focused
c           4.00   38.49 %  stable
c           1.49   14.32 %  simplify
c           1.46   14.06 %  probe
c           0.72    6.97 %  sweep
c           0.64    6.16 %  vivify
c           0.17    1.60 %  reduce
c           0.08    0.76 %  substitute
c           0.02    0.16 %  eliminate
c           0.01    0.14 %  transitive
c           0.01    0.10 %  walking
c           0.00    0.02 %  backbone
c           0.00    0.02 %  parse
c           0.00    0.00 %  subsume
c           0.00    0.00 %  warmup
c =============================================
c          10.39  100.00 %  total
c
c ---- [ statistics ] --------------------------------------------------------
c
c conflicts:                           644334            61996.72 per second
c decisions:                           961107                1.49 per conflict
c eliminated:                              10               11 %  variables
c jumped_reasons:                         491                0 %  propagations
c propagations:                      11080722          1066168    per second
c queue_decisions:                     602859               63 %  decision
c random_decisions:                     55543                6 %  decision
c random_sequences:                       312             2065    interval
c reductions:                              98             6575    interval
c rephased:                                17            37902    interval
c restarts:                             16719               38.54 interval
c score_decisions:                     302705               31 %  decision
c strengthened:                             8                1 %  checks
c switched:                                33            19525    interval
c vivified:                             26256               13 %  checks
c vivify_checks:                       198976             5527    per vivify
c vivify_units:                             0                0 %  variables
c walk_improved:                            5               83 %  walks
c walks:                                    6           107389    interval
c
c ---- [ resources ] ---------------------------------------------------------
c
c maximum-resident-set-size:          7872512 bytes          8 MB
c process-time:                            10s              10.39 seconds
c
c ---- [ shutting down ] -----------------------------------------------------
c
c exit 20
